language ESSENCE' 1.b.a

letting n be 8
letting values be [[1, 2, 1],
                      [1, 3, 2],
                      [1, 4, 3],
                      [2, 3, 4],
                      [2, 4, 5],
                      [3, 4, 6]]